# MIP start
x[0] 0
x[1] 1
x[2] 1
x[3] 0
x[4] 0
x[5] 0
x[6] 1
x[7] 0
x[8] 1
x[9] 1
x[10] 0
x[11] 1
x[12] 1
x[13] 1
x[14] 0
x[15] 0
x[16] 1
x[17] 0
x[18] 0
x[19] 1
x[20] 0
x[21] 1
x[22] 1
x[23] 0
x[24] 1
x[25] 0
x[26] 1
x[27] 0
x[28] 1
x[29] 1
y[0,0] 0
y[0,1] 1
y[0,2] 0
y[0,3] 0
y[0,4] 0
y[0,5] 0
y[0,6] 1
y[0,7] 0
y[0,8] 1
y[0,9] 1
y[0,10] 0
y[0,11] 0
y[0,12] 1
y[0,13] 0
y[0,14] 0
y[0,15] 0
y[0,16] 0
y[0,17] 0
y[0,18] 0
y[0,19] 0
y[0,20] 0
y[0,21] 1
y[0,22] 0
y[0,23] 0
y[0,24] 0
y[0,25] 0
y[0,26] 0
y[0,27] 0
y[0,28] 0
y[0,29] 0
y[1,0] 0
y[1,1] 0
y[1,2] 0
y[1,3] 0
y[1,4] 0
y[1,5] 0
y[1,6] 0
y[1,7] 0
y[1,8] 0
y[1,9] 0
y[1,10] 0
y[1,11] 0
y[1,12] 0
y[1,13] 0
y[1,14] 1
y[1,15] 0
y[1,16] 0
y[1,17] 0
y[1,18] 1
y[1,19] 0
y[1,20] 0
y[1,21] 0
y[1,22] 0
y[1,23] 1
y[1,24] 0
y[1,25] 1
y[1,26] 0
y[1,27] 0
y[1,28] 0
y[1,29] 0
y[2,0] 0
y[2,1] 0
y[2,2] 0
y[2,3] 0
y[2,4] 1
y[2,5] 0
y[2,6] 0
y[2,7] 0
y[2,8] 0
y[2,9] 0
y[2,10] 0
y[2,11] 0
y[2,12] 0
y[2,13] 0
y[2,14] 1
y[2,15] 0
y[2,16] 0
y[2,17] 1
y[2,18] 1
y[2,19] 0
y[2,20] 0
y[2,21] 0
y[2,22] 0
y[2,23] 1
y[2,24] 0
y[2,25] 1
y[2,26] 0
y[2,27] 1
y[2,28] 0
y[2,29] 0
y[3,0] 0
y[3,1] 0
y[3,2] 0
y[3,3] 0
y[3,4] 0
y[3,5] 0
y[3,6] 0
y[3,7] 0
y[3,8] 0
y[3,9] 0
y[3,10] 0
y[3,11] 0
y[3,12] 0
y[3,13] 1
y[3,14] 0
y[3,15] 0
y[3,16] 1
y[3,17] 0
y[3,18] 0
y[3,19] 0
y[3,20] 0
y[3,21] 1
y[3,22] 0
y[3,23] 0
y[3,24] 0
y[3,25] 0
y[3,26] 0
y[3,27] 0
y[3,28] 0
y[3,29] 0
y[4,0] 0
y[4,1] 0
y[4,2] 0
y[4,3] 0
y[4,4] 0
y[4,5] 0
y[4,6] 0
y[4,7] 0
y[4,8] 0
y[4,9] 1
y[4,10] 0
y[4,11] 0
y[4,12] 1
y[4,13] 0
y[4,14] 0
y[4,15] 0
y[4,16] 1
y[4,17] 0
y[4,18] 0
y[4,19] 0
y[4,20] 0
y[4,21] 0
y[4,22] 1
y[4,23] 0
y[4,24] 1
y[4,25] 0
y[4,26] 0
y[4,27] 0
y[4,28] 1
y[4,29] 0
y[5,0] 0
y[5,1] 0
y[5,2] 0
y[5,3] 0
y[5,4] 0
y[5,5] 0
y[5,6] 0
y[5,7] 0
y[5,8] 0
y[5,9] 1
y[5,10] 0
y[5,11] 1
y[5,12] 0
y[5,13] 0
y[5,14] 0
y[5,15] 0
y[5,16] 1
y[5,17] 0
y[5,18] 0
y[5,19] 0
y[5,20] 0
y[5,21] 1
y[5,22] 0
y[5,23] 0
y[5,24] 1
y[5,25] 0
y[5,26] 0
y[5,27] 0
y[5,28] 0
y[5,29] 1
y[6,0] 0
y[6,1] 0
y[6,2] 0
y[6,3] 0
y[6,4] 0
y[6,5] 0
y[6,6] 0
y[6,7] 0
y[6,8] 0
y[6,9] 0
y[6,10] 0
y[6,11] 0
y[6,12] 0
y[6,13] 0
y[6,14] 0
y[6,15] 0
y[6,16] 0
y[6,17] 0
y[6,18] 0
y[6,19] 0
y[6,20] 0
y[6,21] 0
y[6,22] 0
y[6,23] 1
y[6,24] 0
y[6,25] 0
y[6,26] 0
y[6,27] 0
y[6,28] 0
y[6,29] 0
y[7,0] 0
y[7,1] 0
y[7,2] 0
y[7,3] 0
y[7,4] 0
y[7,5] 0
y[7,6] 0
y[7,7] 0
y[7,8] 1
y[7,9] 0
y[7,10] 0
y[7,11] 1
y[7,12] 0
y[7,13] 0
y[7,14] 0
y[7,15] 0
y[7,16] 0
y[7,17] 0
y[7,18] 0
y[7,19] 1
y[7,20] 0
y[7,21] 0
y[7,22] 0
y[7,23] 0
y[7,24] 0
y[7,25] 0
y[7,26] 0
y[7,27] 0
y[7,28] 0
y[7,29] 1
y[8,0] 0
y[8,1] 0
y[8,2] 0
y[8,3] 0
y[8,4] 0
y[8,5] 0
y[8,6] 0
y[8,7] 0
y[8,8] 0
y[8,9] 0
y[8,10] 0
y[8,11] 0
y[8,12] 0
y[8,13] 0
y[8,14] 0
y[8,15] 1
y[8,16] 0
y[8,17] 0
y[8,18] 0
y[8,19] 0
y[8,20] 1
y[8,21] 0
y[8,22] 0
y[8,23] 0
y[8,24] 0
y[8,25] 0
y[8,26] 0
y[8,27] 0
y[8,28] 0
y[8,29] 0
y[9,0] 0
y[9,1] 0
y[9,2] 0
y[9,3] 0
y[9,4] 0
y[9,5] 0
y[9,6] 0
y[9,7] 0
y[9,8] 0
y[9,9] 0
y[9,10] 1
y[9,11] 0
y[9,12] 0
y[9,13] 0
y[9,14] 0
y[9,15] 1
y[9,16] 0
y[9,17] 0
y[9,18] 0
y[9,19] 0
y[9,20] 1
y[9,21] 0
y[9,22] 0
y[9,23] 0
y[9,24] 0
y[9,25] 0
y[9,26] 0
y[9,27] 1
y[9,28] 0
y[9,29] 0
y[10,0] 0
y[10,1] 0
y[10,2] 0
y[10,3] 0
y[10,4] 0
y[10,5] 0
y[10,6] 0
y[10,7] 0
y[10,8] 0
y[10,9] 0
y[10,10] 0
y[10,11] 0
y[10,12] 1
y[10,13] 1
y[10,14] 0
y[10,15] 0
y[10,16] 0
y[10,17] 0
y[10,18] 0
y[10,19] 0
y[10,20] 0
y[10,21] 0
y[10,22] 0
y[10,23] 0
y[10,24] 1
y[10,25] 0
y[10,26] 1
y[10,27] 0
y[10,28] 1
y[10,29] 0
y[11,0] 0
y[11,1] 0
y[11,2] 0
y[11,3] 0
y[11,4] 0
y[11,5] 0
y[11,6] 0
y[11,7] 0
y[11,8] 0
y[11,9] 0
y[11,10] 0
y[11,11] 0
y[11,12] 0
y[11,13] 0
y[11,14] 0
y[11,15] 0
y[11,16] 0
y[11,17] 1
y[11,18] 0
y[11,19] 0
y[11,20] 0
y[11,21] 0
y[11,22] 0
y[11,23] 1
y[11,24] 0
y[11,25] 0
y[11,26] 0
y[11,27] 1
y[11,28] 0
y[11,29] 0
y[12,0] 0
y[12,1] 0
y[12,2] 0
y[12,3] 0
y[12,4] 0
y[12,5] 0
y[12,6] 0
y[12,7] 0
y[12,8] 0
y[12,9] 0
y[12,10] 0
y[12,11] 0
y[12,12] 0
y[12,13] 0
y[12,14] 0
y[12,15] 0
y[12,16] 0
y[12,17] 0
y[12,18] 0
y[12,19] 0
y[12,20] 1
y[12,21] 0
y[12,22] 0
y[12,23] 1
y[12,24] 0
y[12,25] 0
y[12,26] 0
y[12,27] 0
y[12,28] 0
y[12,29] 0
y[13,0] 0
y[13,1] 0
y[13,2] 0
y[13,3] 0
y[13,4] 0
y[13,5] 0
y[13,6] 0
y[13,7] 0
y[13,8] 0
y[13,9] 0
y[13,10] 0
y[13,11] 0
y[13,12] 0
y[13,13] 0
y[13,14] 0
y[13,15] 0
y[13,16] 0
y[13,17] 1
y[13,18] 1
y[13,19] 0
y[13,20] 1
y[13,21] 0
y[13,22] 0
y[13,23] 0
y[13,24] 0
y[13,25] 1
y[13,26] 0
y[13,27] 0
y[13,28] 0
y[13,29] 0
y[14,0] 0
y[14,1] 0
y[14,2] 0
y[14,3] 0
y[14,4] 0
y[14,5] 0
y[14,6] 0
y[14,7] 0
y[14,8] 0
y[14,9] 0
y[14,10] 0
y[14,11] 0
y[14,12] 0
y[14,13] 0
y[14,14] 0
y[14,15] 0
y[14,16] 0
y[14,17] 0
y[14,18] 0
y[14,19] 0
y[14,20] 0
y[14,21] 1
y[14,22] 0
y[14,23] 0
y[14,24] 0
y[14,25] 0
y[14,26] 1
y[14,27] 0
y[14,28] 0
y[14,29] 1
y[15,0] 0
y[15,1] 0
y[15,2] 0
y[15,3] 0
y[15,4] 0
y[15,5] 0
y[15,6] 0
y[15,7] 0
y[15,8] 0
y[15,9] 0
y[15,10] 0
y[15,11] 0
y[15,12] 0
y[15,13] 0
y[15,14] 0
y[15,15] 0
y[15,16] 1
y[15,17] 0
y[15,18] 0
y[15,19] 1
y[15,20] 0
y[15,21] 1
y[15,22] 1
y[15,23] 0
y[15,24] 1
y[15,25] 0
y[15,26] 0
y[15,27] 0
y[15,28] 1
y[15,29] 0
y[16,0] 0
y[16,1] 0
y[16,2] 0
y[16,3] 0
y[16,4] 0
y[16,5] 0
y[16,6] 0
y[16,7] 0
y[16,8] 0
y[16,9] 0
y[16,10] 0
y[16,11] 0
y[16,12] 0
y[16,13] 0
y[16,14] 0
y[16,15] 0
y[16,16] 0
y[16,17] 1
y[16,18] 0
y[16,19] 0
y[16,20] 0
y[16,21] 0
y[16,22] 0
y[16,23] 0
y[16,24] 0
y[16,25] 1
y[16,26] 0
y[16,27] 0
y[16,28] 0
y[16,29] 0
y[17,0] 0
y[17,1] 0
y[17,2] 0
y[17,3] 0
y[17,4] 0
y[17,5] 0
y[17,6] 0
y[17,7] 0
y[17,8] 0
y[17,9] 0
y[17,10] 0
y[17,11] 0
y[17,12] 0
y[17,13] 0
y[17,14] 0
y[17,15] 0
y[17,16] 0
y[17,17] 0
y[17,18] 0
y[17,19] 0
y[17,20] 0
y[17,21] 0
y[17,22] 1
y[17,23] 0
y[17,24] 0
y[17,25] 0
y[17,26] 1
y[17,27] 0
y[17,28] 1
y[17,29] 1
y[18,0] 0
y[18,1] 0
y[18,2] 0
y[18,3] 0
y[18,4] 0
y[18,5] 0
y[18,6] 0
y[18,7] 0
y[18,8] 0
y[18,9] 0
y[18,10] 0
y[18,11] 0
y[18,12] 0
y[18,13] 0
y[18,14] 0
y[18,15] 0
y[18,16] 0
y[18,17] 0
y[18,18] 0
y[18,19] 0
y[18,20] 0
y[18,21] 0
y[18,22] 0
y[18,23] 0
y[18,24] 0
y[18,25] 0
y[18,26] 0
y[18,27] 0
y[18,28] 1
y[18,29] 0
y[19,0] 0
y[19,1] 0
y[19,2] 0
y[19,3] 0
y[19,4] 0
y[19,5] 0
y[19,6] 0
y[19,7] 0
y[19,8] 0
y[19,9] 0
y[19,10] 0
y[19,11] 0
y[19,12] 0
y[19,13] 0
y[19,14] 0
y[19,15] 0
y[19,16] 0
y[19,17] 0
y[19,18] 0
y[19,19] 0
y[19,20] 0
y[19,21] 0
y[19,22] 0
y[19,23] 0
y[19,24] 0
y[19,25] 0
y[19,26] 0
y[19,27] 1
y[19,28] 0
y[19,29] 0
y[20,0] 0
y[20,1] 0
y[20,2] 0
y[20,3] 0
y[20,4] 0
y[20,5] 0
y[20,6] 0
y[20,7] 0
y[20,8] 0
y[20,9] 0
y[20,10] 0
y[20,11] 0
y[20,12] 0
y[20,13] 0
y[20,14] 0
y[20,15] 0
y[20,16] 0
y[20,17] 0
y[20,18] 0
y[20,19] 0
y[20,20] 0
y[20,21] 1
y[20,22] 0
y[20,23] 0
y[20,24] 1
y[20,25] 0
y[20,26] 0
y[20,27] 0
y[20,28] 0
y[20,29] 0
y[21,0] 0
y[21,1] 0
y[21,2] 0
y[21,3] 0
y[21,4] 0
y[21,5] 0
y[21,6] 0
y[21,7] 0
y[21,8] 0
y[21,9] 0
y[21,10] 0
y[21,11] 0
y[21,12] 0
y[21,13] 0
y[21,14] 0
y[21,15] 0
y[21,16] 0
y[21,17] 0
y[21,18] 0
y[21,19] 0
y[21,20] 0
y[21,21] 0
y[21,22] 0
y[21,23] 0
y[21,24] 0
y[21,25] 0
y[21,26] 0
y[21,27] 0
y[21,28] 0
y[21,29] 0
y[22,0] 0
y[22,1] 0
y[22,2] 0
y[22,3] 0
y[22,4] 0
y[22,5] 0
y[22,6] 0
y[22,7] 0
y[22,8] 0
y[22,9] 0
y[22,10] 0
y[22,11] 0
y[22,12] 0
y[22,13] 0
y[22,14] 0
y[22,15] 0
y[22,16] 0
y[22,17] 0
y[22,18] 0
y[22,19] 0
y[22,20] 0
y[22,21] 0
y[22,22] 0
y[22,23] 0
y[22,24] 0
y[22,25] 0
y[22,26] 0
y[22,27] 0
y[22,28] 0
y[22,29] 0
y[23,0] 0
y[23,1] 0
y[23,2] 0
y[23,3] 0
y[23,4] 0
y[23,5] 0
y[23,6] 0
y[23,7] 0
y[23,8] 0
y[23,9] 0
y[23,10] 0
y[23,11] 0
y[23,12] 0
y[23,13] 0
y[23,14] 0
y[23,15] 0
y[23,16] 0
y[23,17] 0
y[23,18] 0
y[23,19] 0
y[23,20] 0
y[23,21] 0
y[23,22] 0
y[23,23] 0
y[23,24] 0
y[23,25] 0
y[23,26] 0
y[23,27] 0
y[23,28] 0
y[23,29] 1
y[24,0] 0
y[24,1] 0
y[24,2] 0
y[24,3] 0
y[24,4] 0
y[24,5] 0
y[24,6] 0
y[24,7] 0
y[24,8] 0
y[24,9] 0
y[24,10] 0
y[24,11] 0
y[24,12] 0
y[24,13] 0
y[24,14] 0
y[24,15] 0
y[24,16] 0
y[24,17] 0
y[24,18] 0
y[24,19] 0
y[24,20] 0
y[24,21] 0
y[24,22] 0
y[24,23] 0
y[24,24] 0
y[24,25] 0
y[24,26] 0
y[24,27] 1
y[24,28] 0
y[24,29] 0
y[25,0] 0
y[25,1] 0
y[25,2] 0
y[25,3] 0
y[25,4] 0
y[25,5] 0
y[25,6] 0
y[25,7] 0
y[25,8] 0
y[25,9] 0
y[25,10] 0
y[25,11] 0
y[25,12] 0
y[25,13] 0
y[25,14] 0
y[25,15] 0
y[25,16] 0
y[25,17] 0
y[25,18] 0
y[25,19] 0
y[25,20] 0
y[25,21] 0
y[25,22] 0
y[25,23] 0
y[25,24] 0
y[25,25] 0
y[25,26] 1
y[25,27] 0
y[25,28] 1
y[25,29] 0
y[26,0] 0
y[26,1] 0
y[26,2] 0
y[26,3] 0
y[26,4] 0
y[26,5] 0
y[26,6] 0
y[26,7] 0
y[26,8] 0
y[26,9] 0
y[26,10] 0
y[26,11] 0
y[26,12] 0
y[26,13] 0
y[26,14] 0
y[26,15] 0
y[26,16] 0
y[26,17] 0
y[26,18] 0
y[26,19] 0
y[26,20] 0
y[26,21] 0
y[26,22] 0
y[26,23] 0
y[26,24] 0
y[26,25] 0
y[26,26] 0
y[26,27] 1
y[26,28] 0
y[26,29] 0
y[27,0] 0
y[27,1] 0
y[27,2] 0
y[27,3] 0
y[27,4] 0
y[27,5] 0
y[27,6] 0
y[27,7] 0
y[27,8] 0
y[27,9] 0
y[27,10] 0
y[27,11] 0
y[27,12] 0
y[27,13] 0
y[27,14] 0
y[27,15] 0
y[27,16] 0
y[27,17] 0
y[27,18] 0
y[27,19] 0
y[27,20] 0
y[27,21] 0
y[27,22] 0
y[27,23] 0
y[27,24] 0
y[27,25] 0
y[27,26] 0
y[27,27] 0
y[27,28] 0
y[27,29] 1
y[28,0] 0
y[28,1] 0
y[28,2] 0
y[28,3] 0
y[28,4] 0
y[28,5] 0
y[28,6] 0
y[28,7] 0
y[28,8] 0
y[28,9] 0
y[28,10] 0
y[28,11] 0
y[28,12] 0
y[28,13] 0
y[28,14] 0
y[28,15] 0
y[28,16] 0
y[28,17] 0
y[28,18] 0
y[28,19] 0
y[28,20] 0
y[28,21] 0
y[28,22] 0
y[28,23] 0
y[28,24] 0
y[28,25] 0
y[28,26] 0
y[28,27] 0
y[28,28] 0
y[28,29] 0
y[29,0] 0
y[29,1] 0
y[29,2] 0
y[29,3] 0
y[29,4] 0
y[29,5] 0
y[29,6] 0
y[29,7] 0
y[29,8] 0
y[29,9] 0
y[29,10] 0
y[29,11] 0
y[29,12] 0
y[29,13] 0
y[29,14] 0
y[29,15] 0
y[29,16] 0
y[29,17] 0
y[29,18] 0
y[29,19] 0
y[29,20] 0
y[29,21] 0
y[29,22] 0
y[29,23] 0
y[29,24] 0
y[29,25] 0
y[29,26] 0
y[29,27] 0
y[29,28] 0
y[29,29] 0
